(declare-rel fail ())
(declare-rel inv2 (Int Int Int Int Int Int Int))
(declare-var A Int)
(declare-var B Int)
(declare-var C Int)
(declare-var D Int)
(declare-var E Int)
(declare-var F Int)
(declare-var G Int)
(declare-var H Int)
(declare-var I Int)
(declare-var J Int)
(rule (=> (and (or (= H 0) (= H C))
         (or (= E 0) (= E C))
         (= J 0)
         (= D (* 4 A))
         (= B A)
         (= 1 C)
         (> A 0)
         (>= 100 A))
    (inv2 H E J D C B A)))
(rule (let ((a!1 (= G (ite (= (mod H 2) (mod E 2)) (+ C J) J))))
  (=> (and (inv2 H E J D C B A) (= F (+ H 2)) (= I (+ E 3)) a!1)
      (inv2 F I G D C B A))))
(rule (=> (and (inv2 H E J D C B A) (> H D) (not (>= J B))) fail))
(query fail)

